h = 9;
w = 9;
n_pieces = 5;
n_shapes = 9;
shape = [{1}, {2}, {3}, {4}, {5}, {6}, {7}, {8}, {9}];
shape_index = [{1}, {2, 3}, {4, 5}, {6, 7}, {8, 9}];
rect_rep = [1, 1, 1, 1, 1];
rect_copies = 5;
coordinate_shapes = [0, 1, 2, 3, 4];
rect_size = [|3, 3
|3, 4
|4, 3
|3, 5
|5, 3
|3, 6
|6, 3
|3, 9
|9, 3
|];
rect_offset = [|0, 0
|0, 0
|0, 0
|0, 0
|0, 0
|0, 0
|0, 0
|0, 0
|0, 0
|];
rectangles = [|3, 3
|3, 4
|3, 5
|3, 6
|3, 9
|];
